     Program PWSCF v.6.7MaX starts on 22Oct2024 at 14:52: 2

     Waiting for input...
     Reading input from standard input

     Current dimensions of program PWSCF are:
     Max number of different atomic species (ntypx) = 10
     Max number of k-points (npk) =  40000
     Max angular momentum in pseudopotentials (lmaxx) =  3
     file Si.pbe-n-kjpaw_psl.1.0.0.UPF: wavefunction(s)  3S 3P renormalized

     Subspace diagonalization in iterative solution of the eigenvalue problem:
     a serial algorithm will be used

     Message from routine setup:
     using ibrav=0 with symmetry is DISCOURAGED, use correct ibrav instead

     Title:
     si.slab

     bravais-lattice index     =            0
     lattice parameter (alat)  =       6.8503  a.u.
     unit-cell volume          =    1391.9102 (a.u.)^3
     number of atoms/cell      =            2
     number of atomic types    =            1
     number of electrons       =         8.00
     number of Kohn-Sham states=            8
     kinetic-energy cutoff     =     100.0000  Ry
     charge density cutoff     =     800.0000  Ry
     scf convergence threshold =      1.0E-08
     mixing beta               =       0.3000
     number of iterations used =            8  local-TF  mixing
     Exchange-correlation= SLA  PW   PBX  PBC
                           (   1   4   3   4   0   0   0)

     celldm(1)=   6.850271  celldm(2)=   0.000000  celldm(3)=   0.000000
     celldm(4)=   0.000000  celldm(5)=   0.000000  celldm(6)=   0.000000

     crystal axes: (cart. coord. in units of alat)
               a(1) = (   1.000000   0.000000   0.000000 )
               a(2) = (   0.500000   0.866000   0.000000 )
               a(3) = (   0.000000   0.000000   5.000000 )

     reciprocal axes: (cart. coord. in units 2 pi/alat)
               b(1) = (  1.000000 -0.577367  0.000000 )
               b(2) = (  0.000000  1.154734  0.000000 )
               b(3) = (  0.000000  0.000000  0.200000 )

     PseudoPot. # 1 for Si read from file:
     /home/ayan/pseudo_directory/Si.pbe-n-kjpaw_psl.1.0.0.UPF
     MD5 check sum: c39c59da582df4a0d9f10159256ea34e
     Pseudo is Projector augmented-wave + core cor, Zval =  4.0
     Generated using &quot;atomic&quot; code by A. Dal Corso  v.6.3
     Shape of augmentation charge: PSQ
     Using radial grid of 1141 points,  6 beta functions with:
                l(1) =   0
                l(2) =   0
                l(3) =   1
                l(4) =   1
                l(5) =   2
                l(6) =   2
     Q(r) pseudized with 0 coefficients

     atomic species   valence    mass     pseudopotential
        Si             4.00    28.08500     Si( 1.00)

      2 Sym. Ops. (no inversion) found

                                    s                        frac. trans.

      isym =  1     identity

 cryst.   s( 1) = (     1          0          0      )
                  (     0          1          0      )
                  (     0          0          1      )

 cart.    s( 1) = (  1.0000000  0.0000000  0.0000000 )
                  (  0.0000000  1.0000000  0.0000000 )
                  (  0.0000000  0.0000000  1.0000000 )

      isym =  2     inv. 180 deg rotation - cart. axis [0,0,1]

 cryst.   s( 2) = (     1          0          0      )
                  (     0          1          0      )
                  (     0          0         -1      )

 cart.    s( 2) = (  1.0000000  0.0000000  0.0000000 )
                  (  0.0000000  1.0000000  0.0000000 )
                  (  0.0000000  0.0000000 -1.0000000 )

   Cartesian axes

     site n.     atom                  positions (alat units)
         1           Si  tau(   1) = (   0.0000000   0.0000000   0.0000000  )
         2           Si  tau(   2) = (   0.4999800   0.2886378   0.0000000  )

   Crystallographic axes

     site n.     atom                  positions (cryst. coord.)
         1           Si  tau(   1) = (  0.0000000  0.0000000  0.0000000  )
         2           Si  tau(   2) = (  0.3333300  0.3333000  0.0000000  )

     number of k points=    20  Methfessel-Paxton smearing, width (Ry)=  0.0300
                       cart. coord. in units 2pi/alat
        k(    1) = (   0.0000000   0.0000000   0.0000000), wk =   0.0555556
        k(    2) = (   0.0000000   0.1924557   0.0000000), wk =   0.1111111
        k(    3) = (   0.0000000   0.3849115   0.0000000), wk =   0.1111111
        k(    4) = (   0.0000000  -0.5773672   0.0000000), wk =   0.0555556
        k(    5) = (   0.1666667  -0.0962279   0.0000000), wk =   0.1111111
        k(    6) = (   0.1666667   0.2886836   0.0000000), wk =   0.1111111
        k(    7) = (   0.1666667  -0.6735951   0.0000000), wk =   0.1111111
        k(    8) = (   0.3333333  -0.1924557   0.0000000), wk =   0.1111111
        k(    9) = (   0.3333333   0.0000000   0.0000000), wk =   0.1111111
        k(   10) = (   0.3333333  -0.7698229   0.0000000), wk =   0.1111111
        k(   11) = (   0.3333333  -0.5773672   0.0000000), wk =   0.1111111
        k(   12) = (  -0.5000000   0.2886836   0.0000000), wk =   0.0555556
        k(   13) = (  -0.5000000   0.4811393   0.0000000), wk =   0.1111111
        k(   14) = (  -0.1666667  -0.0962279   0.0000000), wk =   0.1111111
        k(   15) = (  -0.1666667   0.2886836   0.0000000), wk =   0.1111111
        k(   16) = (  -0.1666667  -0.6735951   0.0000000), wk =   0.1111111
        k(   17) = (  -0.3333333  -0.1924557   0.0000000), wk =   0.1111111
        k(   18) = (  -0.3333333  -0.7698229   0.0000000), wk =   0.1111111
        k(   19) = (   0.5000000   0.2886836   0.0000000), wk =   0.0555556
        k(   20) = (   0.5000000   0.4811393   0.0000000), wk =   0.1111111

                       cryst. coord.
        k(    1) = (   0.0000000   0.0000000   0.0000000), wk =   0.0555556
        k(    2) = (   0.0000000   0.1666667   0.0000000), wk =   0.1111111
        k(    3) = (   0.0000000   0.3333333   0.0000000), wk =   0.1111111
        k(    4) = (   0.0000000  -0.5000000   0.0000000), wk =   0.0555556
        k(    5) = (   0.1666667   0.0000000   0.0000000), wk =   0.1111111
        k(    6) = (   0.1666667   0.3333333   0.0000000), wk =   0.1111111
        k(    7) = (   0.1666667  -0.5000000   0.0000000), wk =   0.1111111
        k(    8) = (   0.3333333   0.0000000   0.0000000), wk =   0.1111111
        k(    9) = (   0.3333333   0.1666667   0.0000000), wk =   0.1111111
        k(   10) = (   0.3333333  -0.5000000   0.0000000), wk =   0.1111111
        k(   11) = (   0.3333333  -0.3333333   0.0000000), wk =   0.1111111
        k(   12) = (  -0.5000000   0.0000000   0.0000000), wk =   0.0555556
        k(   13) = (  -0.5000000   0.1666667   0.0000000), wk =   0.1111111
        k(   14) = (  -0.1666667  -0.1666667   0.0000000), wk =   0.1111111
        k(   15) = (  -0.1666667   0.1666667   0.0000000), wk =   0.1111111
        k(   16) = (  -0.1666667  -0.6666667   0.0000000), wk =   0.1111111
        k(   17) = (  -0.3333333  -0.3333333   0.0000000), wk =   0.1111111
        k(   18) = (  -0.3333333  -0.8333333   0.0000000), wk =   0.1111111
        k(   19) = (   0.5000000   0.5000000   0.0000000), wk =   0.0555556
        k(   20) = (   0.5000000   0.6666667   0.0000000), wk =   0.1111111

     Initial potential from superposition of free atoms

     starting charge    7.99888, renormalised to    8.00000

     negative rho (up, down):  5.907E-05 0.000E+00
     Starting wfcs are    8 randomized atomic wfcs
     Checking if some PAW data can be deallocated...

     Self-consistent Calculation

     iteration #  1     ecut=   100.00 Ry     beta= 0.30
     CG style diagonalization
     ethr =  1.00E-02,  avg # of iterations =  4.3

     total energy              =     -93.32909623 Ry
     estimated scf accuracy    <       0.10722338 Ry

[...]

     negative rho (up, down):  1.026E-03 0.000E+00

[...]

     iteration #  7     ecut=   100.00 Ry     beta= 0.30
     CG style diagonalization
     c_bands:  1 eigenvalues not converged
     c_bands:  1 eigenvalues not converged
     ethr =  1.69E-05,  avg # of iterations =  4.0

[...]

     iteration # 11     ecut=   100.00 Ry     beta= 0.30
     CG style diagonalization
     c_bands:  1 eigenvalues not converged
     ethr =  1.44E-06,  avg # of iterations =  4.0

[...]

     total energy              =     -93.30872035 Ry
     estimated scf accuracy    <       0.00000015 Ry

     iteration # 16     ecut=   100.00 Ry     beta= 0.30
     CG style diagonalization
     ethr =  1.93E-09,  avg # of iterations =  3.6

[...]

     End of self-consistent calculation

          k = 0.0000 0.0000 0.0000 ( 23449 PWs)   bands (ev):

   -14.6598  -6.0844  -3.9261  -3.9249   0.4616   0.5022   0.5029   1.2767

     occupation numbers
     1.0000   1.0000   1.0000   1.0000  -0.0000  -0.0000  -0.0000  -0.0000

[...]

          k =-0.5000 0.2887 0.0000 ( 23548 PWs)   bands (ev):

[...]

          k =-0.3333-0.7698 0.0000 ( 23511 PWs)   bands (ev):

[...]

          k = 0.5000 0.4811 0.0000 ( 23511 PWs)   bands (ev):

   -12.1978  -9.7020  -6.7458  -3.6978  -1.1764   0.6526   2.7653   3.2397

     occupation numbers
     1.0000   1.0000   1.0000   1.0000  -0.0002  -0.0000  -0.0000  -0.0000

     the Fermi energy is    -2.3635 ev

!    total energy              =     -93.30872041 Ry

     total all-electron energy =     -1160.000450 Ry
     estimated scf accuracy    <          3.4E-09 Ry
     smearing contrib. (-TS)   =      -0.00064664 Ry
     internal energy E=F+TS    =     -93.30807377 Ry

     The total energy is F=E-TS. E is the sum of the following terms:
     one-electron contribution =     -81.30451794 Ry
     hartree contribution      =      42.03985771 Ry
     xc contribution           =     -12.40941456 Ry
     ewald contribution        =      29.60057362 Ry
     one-center paw contrib.   =     -71.23457261 Ry
      -> PAW hartree energy AE =       7.35569532 Ry
      -> PAW hartree energy PS =      -7.32914418 Ry
      -> PAW xc energy AE      =     -82.30945025 Ry
      -> PAW xc energy PS      =      11.04832649 Ry
      -> total E_H with PAW    =      42.06640886 Ry
      -> total E_XC with PAW   =     -83.67053831 Ry

     convergence has been achieved in  16 iterations

     negative rho (up, down):  5.803E-06 0.000E+00

     Forces acting on atoms (cartesian axes, Ry/au):

     atom    1 type  1   force =    -0.00008264   -0.00008929    0.00000000
     atom    2 type  1   force =     0.00008264    0.00008929    0.00000000
     The non-local contrib.  to forces
     atom    1 type  1   force =    -0.00007076   -0.00005439    0.00000000
     atom    2 type  1   force =     0.00006998    0.00005469    0.00000000
     The ionic contribution  to forces
     atom    1 type  1   force =    -0.00015791   -0.00011203   -0.00000000
     atom    2 type  1   force =     0.00015791    0.00011203   -0.00000000
     The local contribution  to forces
     atom    1 type  1   force =     0.00013807    0.00007194    0.00000000
     atom    2 type  1   force =    -0.00013847   -0.00007190    0.00000000
     The core correction contribution to forces
     atom    1 type  1   force =     0.00000816    0.00000637    0.00000000
     atom    2 type  1   force =    -0.00000812   -0.00000638    0.00000000
     The Hubbard contrib.    to forces
     atom    1 type  1   force =     0.00000000    0.00000000    0.00000000
     atom    2 type  1   force =     0.00000000    0.00000000    0.00000000
     The SCF correction term to forces
     atom    1 type  1   force =    -0.00000077   -0.00000101    0.00000000
     atom    2 type  1   force =     0.00000079    0.00000104    0.00000000

     Total force =     0.000172     Total SCF correction =     0.000002

     Computing stress (Cartesian axis) and pressure

     negative rho (up, down):  5.803E-06 0.000E+00
          total   stress  (Ry/bohr**3)                   (kbar)     P=       47.52
   0.00048458   0.00000010   0.00000000           71.28        0.01        0.00
   0.00000010   0.00048441   0.00000000            0.01       71.26        0.00
   0.00000000   0.00000000   0.00000004            0.00        0.00        0.01

     kinetic stress (kbar)    424.26     -0.01      0.00
                               -0.01    424.28      0.00
                                0.00      0.00    504.14

     local   stress (kbar)  -9456.98     -0.05     -0.00
                               -0.05  -9456.85     -0.00
                               -0.00     -0.00   9724.50

     nonloc. stress (kbar)    358.64      0.01      0.00
                                0.01    358.62      0.00
                                0.00      0.00    287.07

     hartree stress (kbar)   4395.46      0.01      0.00
                                0.01   4395.45      0.00
                                0.00      0.00  -4347.89

     exc-cor stress (kbar)    573.08      0.00      0.00
                                0.00    573.08     -0.00
                                0.00     -0.00    565.37

     corecor stress (kbar)   -772.40     -0.00      0.00
                               -0.00   -772.39      0.00
                                0.00      0.00   -763.25

     ewald   stress (kbar)   4549.22      0.06     -0.00
                                0.06   4549.07     -0.00
                               -0.00     -0.00  -5969.93

     hubbard stress (kbar)      0.00      0.00      0.00
                                0.00      0.00      0.00
                                0.00      0.00      0.00

     DFT-D   stress (kbar)      0.00      0.00      0.00
                                0.00      0.00      0.00
                                0.00      0.00      0.00

     XDM     stress (kbar)      0.00      0.00      0.00
                                0.00      0.00      0.00
                                0.00      0.00      0.00

     dft-nl  stress (kbar)      0.00      0.00      0.00
                                0.00      0.00      0.00
                                0.00      0.00      0.00

     TS-vdW  stress (kbar)      0.00      0.00      0.00
                                0.00      0.00      0.00
                                0.00      0.00      0.00

     Writing output data file ./outputs/si.slab.save/

     General routines

     Parallel routines

     PAW routines

   This run was terminated on:  14:57:13  22Oct2024

   JOB DONE.