     Program PWSCF v.6.7MaX starts on 22Oct2024 at 14:57:14

     Waiting for input...
     Reading input from standard input

     Current dimensions of program PWSCF are:
     Max number of different atomic species (ntypx) = 10
     Max number of k-points (npk) =  40000
     Max angular momentum in pseudopotentials (lmaxx) =  3
     file Si.pbe-n-kjpaw_psl.1.0.0.UPF: wavefunction(s)  3S 3P renormalized

     Subspace diagonalization in iterative solution of the eigenvalue problem:
     a serial algorithm will be used

     Message from routine setup:
     using ibrav=0 with symmetry is DISCOURAGED, use correct ibrav instead

     Title:
     si.slab

     bravais-lattice index     =            0
     lattice parameter (alat)  =       7.0865  a.u.
     unit-cell volume          =    1540.9231 (a.u.)^3
     number of atoms/cell      =            2
     number of atomic types    =            1
     number of electrons       =         8.00
     number of Kohn-Sham states=            8
     kinetic-energy cutoff     =     100.0000  Ry
     charge density cutoff     =     800.0000  Ry
     scf convergence threshold =      1.0E-08
     mixing beta               =       0.3000
     number of iterations used =            8  local-TF  mixing
     Exchange-correlation= SLA  PW   PBX  PBC
                           (   1   4   3   4   0   0   0)

     celldm(1)=   7.086487  celldm(2)=   0.000000  celldm(3)=   0.000000
     celldm(4)=   0.000000  celldm(5)=   0.000000  celldm(6)=   0.000000

     crystal axes: (cart. coord. in units of alat)
               a(1) = (   1.000000   0.000000   0.000000 )
               a(2) = (   0.500000   0.866000   0.000000 )
               a(3) = (   0.000000   0.000000   5.000000 )

     reciprocal axes: (cart. coord. in units 2 pi/alat)
               b(1) = (  1.000000 -0.577367  0.000000 )
               b(2) = (  0.000000  1.154734  0.000000 )
               b(3) = (  0.000000  0.000000  0.200000 )

     PseudoPot. # 1 for Si read from file:
     /home/ayan/pseudo_directory/Si.pbe-n-kjpaw_psl.1.0.0.UPF
     MD5 check sum: c39c59da582df4a0d9f10159256ea34e
     Pseudo is Projector augmented-wave + core cor, Zval =  4.0
     Generated using &quot;atomic&quot; code by A. Dal Corso  v.6.3
     Shape of augmentation charge: PSQ
     Using radial grid of 1141 points,  6 beta functions with:
                l(1) =   0
                l(2) =   0
                l(3) =   1
                l(4) =   1
                l(5) =   2
                l(6) =   2
     Q(r) pseudized with 0 coefficients

     atomic species   valence    mass     pseudopotential
        Si             4.00    28.08500     Si( 1.00)

      2 Sym. Ops. (no inversion) found

                                    s                        frac. trans.

      isym =  1     identity

 cryst.   s( 1) = (     1          0          0      )
                  (     0          1          0      )
                  (     0          0          1      )

 cart.    s( 1) = (  1.0000000  0.0000000  0.0000000 )
                  (  0.0000000  1.0000000  0.0000000 )
                  (  0.0000000  0.0000000  1.0000000 )

      isym =  2     inv. 180 deg rotation - cart. axis [0,0,1]

 cryst.   s( 2) = (     1          0          0      )
                  (     0          1          0      )
                  (     0          0         -1      )

 cart.    s( 2) = (  1.0000000  0.0000000  0.0000000 )
                  (  0.0000000  1.0000000  0.0000000 )
                  (  0.0000000  0.0000000 -1.0000000 )

   Cartesian axes

     site n.     atom                  positions (alat units)
         1           Si  tau(   1) = (   0.0000000   0.0000000   0.0000000  )
         2           Si  tau(   2) = (   0.4999800   0.2886378   0.0000000  )

   Crystallographic axes

     site n.     atom                  positions (cryst. coord.)
         1           Si  tau(   1) = (  0.0000000  0.0000000  0.0000000  )
         2           Si  tau(   2) = (  0.3333300  0.3333000  0.0000000  )

     number of k points=    20  Methfessel-Paxton smearing, width (Ry)=  0.0300
                       cart. coord. in units 2pi/alat
        k(    1) = (   0.0000000   0.0000000   0.0000000), wk =   0.0555556
        k(    2) = (   0.0000000   0.1924557   0.0000000), wk =   0.1111111
        k(    3) = (   0.0000000   0.3849115   0.0000000), wk =   0.1111111
        k(    4) = (   0.0000000  -0.5773672   0.0000000), wk =   0.0555556
        k(    5) = (   0.1666667  -0.0962279   0.0000000), wk =   0.1111111
        k(    6) = (   0.1666667   0.2886836   0.0000000), wk =   0.1111111
        k(    7) = (   0.1666667  -0.6735951   0.0000000), wk =   0.1111111
        k(    8) = (   0.3333333  -0.1924557   0.0000000), wk =   0.1111111
        k(    9) = (   0.3333333   0.0000000   0.0000000), wk =   0.1111111
        k(   10) = (   0.3333333  -0.7698229   0.0000000), wk =   0.1111111
        k(   11) = (   0.3333333  -0.5773672   0.0000000), wk =   0.1111111
        k(   12) = (  -0.5000000   0.2886836   0.0000000), wk =   0.0555556
        k(   13) = (  -0.5000000   0.4811393   0.0000000), wk =   0.1111111
        k(   14) = (  -0.1666667  -0.0962279   0.0000000), wk =   0.1111111
        k(   15) = (  -0.1666667   0.2886836   0.0000000), wk =   0.1111111
        k(   16) = (  -0.1666667  -0.6735951   0.0000000), wk =   0.1111111
        k(   17) = (  -0.3333333  -0.1924557   0.0000000), wk =   0.1111111
        k(   18) = (  -0.3333333  -0.7698229   0.0000000), wk =   0.1111111
        k(   19) = (   0.5000000   0.2886836   0.0000000), wk =   0.0555556
        k(   20) = (   0.5000000   0.4811393   0.0000000), wk =   0.1111111

                       cryst. coord.
        k(    1) = (   0.0000000   0.0000000   0.0000000), wk =   0.0555556
        k(    2) = (   0.0000000   0.1666667   0.0000000), wk =   0.1111111
        k(    3) = (   0.0000000   0.3333333   0.0000000), wk =   0.1111111
        k(    4) = (   0.0000000  -0.5000000   0.0000000), wk =   0.0555556
        k(    5) = (   0.1666667   0.0000000   0.0000000), wk =   0.1111111
        k(    6) = (   0.1666667   0.3333333   0.0000000), wk =   0.1111111
        k(    7) = (   0.1666667  -0.5000000   0.0000000), wk =   0.1111111
        k(    8) = (   0.3333333   0.0000000   0.0000000), wk =   0.1111111
        k(    9) = (   0.3333333   0.1666667   0.0000000), wk =   0.1111111
        k(   10) = (   0.3333333  -0.5000000   0.0000000), wk =   0.1111111
        k(   11) = (   0.3333333  -0.3333333   0.0000000), wk =   0.1111111
        k(   12) = (  -0.5000000  -0.0000000   0.0000000), wk =   0.0555556
        k(   13) = (  -0.5000000   0.1666667   0.0000000), wk =   0.1111111
        k(   14) = (  -0.1666667  -0.1666667   0.0000000), wk =   0.1111111
        k(   15) = (  -0.1666667   0.1666667   0.0000000), wk =   0.1111111
        k(   16) = (  -0.1666667  -0.6666667   0.0000000), wk =   0.1111111
        k(   17) = (  -0.3333333  -0.3333333   0.0000000), wk =   0.1111111
        k(   18) = (  -0.3333333  -0.8333333   0.0000000), wk =   0.1111111
        k(   19) = (   0.5000000   0.5000000   0.0000000), wk =   0.0555556
        k(   20) = (   0.5000000   0.6666667   0.0000000), wk =   0.1111111

     Initial potential from superposition of free atoms

     starting charge    7.99888, renormalised to    8.00000

     negative rho (up, down):  6.554E-05 0.000E+00
     Starting wfcs are    8 randomized atomic wfcs
     Checking if some PAW data can be deallocated...

     Self-consistent Calculation

     iteration #  1     ecut=   100.00 Ry     beta= 0.30
     CG style diagonalization
     ethr =  1.00E-02,  avg # of iterations =  4.2

     negative rho (up, down):  2.213E-08 0.000E+00

     total energy              =     -93.35641769 Ry
     estimated scf accuracy    <       0.08414952 Ry

[...]

     iteration #  6     ecut=   100.00 Ry     beta= 0.30
     CG style diagonalization
     c_bands:  1 eigenvalues not converged
     ethr =  2.03E-05,  avg # of iterations =  3.6

[...]

     iteration # 15     ecut=   100.00 Ry     beta= 0.30
     CG style diagonalization
     ethr =  4.80E-10,  avg # of iterations =  3.3

[...]

     total energy              =     -93.34237912 Ry
     estimated scf accuracy    <       0.00000001 Ry

     iteration # 16     ecut=   100.00 Ry     beta= 0.30
     CG style diagonalization
     c_bands:  1 eigenvalues not converged
     ethr =  1.86E-10,  avg # of iterations =  3.5

[...]

     End of self-consistent calculation

          k = 0.0000 0.0000 0.0000 ( 26093 PWs)   bands (ev):

   -14.4562  -6.0092  -4.2967  -4.2955  -0.0708   0.1197   0.1204   0.3709

     occupation numbers
     1.0000   1.0000   1.0000   1.0000  -0.0000  -0.0000  -0.0000  -0.0000

[...]

          k =-0.5000 0.2887 0.0000 ( 26028 PWs)   bands (ev):

[...]

          k =-0.3333-0.7698 0.0000 ( 26011 PWs)   bands (ev):

[...]

          k = 0.5000 0.4811 0.0000 ( 26011 PWs)   bands (ev):

   -12.1968  -9.8304  -6.8267  -3.8138  -1.4559   0.1370   2.5056   2.9504

     occupation numbers
     1.0000   1.0000   1.0000   1.0001  -0.0003  -0.0000  -0.0000  -0.0000

     the Fermi energy is    -2.5859 ev

!    total energy              =     -93.34237914 Ry

     total all-electron energy =     -1160.034109 Ry
     estimated scf accuracy    <          1.7E-09 Ry
     smearing contrib. (-TS)   =      -0.00058456 Ry
     internal energy E=F+TS    =     -93.34179458 Ry

     The total energy is F=E-TS. E is the sum of the following terms:
     one-electron contribution =     -79.46195163 Ry
     hartree contribution      =      41.00793017 Ry
     xc contribution           =     -12.29075043 Ry
     ewald contribution        =      28.61388783 Ry
     one-center paw contrib.   =     -71.21091051 Ry
      -> PAW hartree energy AE =       6.57449236 Ry
      -> PAW hartree energy PS =      -6.54974682 Ry
      -> PAW xc energy AE      =     -82.00757226 Ry
      -> PAW xc energy PS      =      10.77191621 Ry
      -> total E_H with PAW    =      41.03267570 Ry
      -> total E_XC with PAW   =     -83.52640648 Ry

     convergence has been achieved in  16 iterations

     negative rho (up, down):  6.034E-06 0.000E+00

     Forces acting on atoms (cartesian axes, Ry/au):

     atom    1 type  1   force =    -0.00006650   -0.00007590    0.00000000
     atom    2 type  1   force =     0.00006650    0.00007590    0.00000000
     The non-local contrib.  to forces
     atom    1 type  1   force =    -0.00005490   -0.00004528    0.00000000
     atom    2 type  1   force =     0.00005904    0.00004421    0.00000000
     The ionic contribution  to forces
     atom    1 type  1   force =    -0.00014756   -0.00010468   -0.00000000
     atom    2 type  1   force =     0.00014756    0.00010468   -0.00000000
     The local contribution  to forces
     atom    1 type  1   force =     0.00012969    0.00006909    0.00000000
     atom    2 type  1   force =    -0.00013157   -0.00006825    0.00000000
     The core correction contribution to forces
     atom    1 type  1   force =     0.00000643    0.00000531    0.00000000
     atom    2 type  1   force =    -0.00000686   -0.00000517    0.00000000
     The Hubbard contrib.    to forces
     atom    1 type  1   force =     0.00000000    0.00000000    0.00000000
     atom    2 type  1   force =     0.00000000    0.00000000    0.00000000
     The SCF correction term to forces
     atom    1 type  1   force =     0.00000098   -0.00000039    0.00000000
     atom    2 type  1   force =    -0.00000052    0.00000037   -0.00000000

     Total force =     0.000143     Total SCF correction =     0.000001

     Computing stress (Cartesian axis) and pressure

     negative rho (up, down):  6.034E-06 0.000E+00
          total   stress  (Ry/bohr**3)                   (kbar)     P=       20.93
   0.00021348   0.00000007   0.00000000           31.40        0.01        0.00
   0.00000007   0.00021339   0.00000000            0.01       31.39        0.00
   0.00000000   0.00000000  -0.00000003            0.00        0.00       -0.00

     kinetic stress (kbar)    364.56     -0.01      0.00
                               -0.01    364.58      0.00
                                0.00      0.00    445.78

     local   stress (kbar)  -8307.68     -0.05     -0.00
                               -0.05  -8307.56     -0.00
                               -0.00     -0.00   8508.19

     nonloc. stress (kbar)    310.08      0.01      0.00
                                0.01    310.06      0.00
                                0.00      0.00    255.35

     hartree stress (kbar)   3867.93      0.01     -0.00
                                0.01   3867.92      0.00
                               -0.00      0.00  -3821.01

     exc-cor stress (kbar)    519.84      0.00      0.00
                                0.00    519.84      0.00
                                0.00      0.00    513.34

     corecor stress (kbar)   -695.65     -0.00     -0.00
                               -0.00   -695.65      0.00
                               -0.00      0.00   -688.79

     ewald   stress (kbar)   3972.32      0.05     -0.00
                                0.05   3972.19     -0.00
                               -0.00     -0.00  -5212.86

     hubbard stress (kbar)      0.00      0.00      0.00
                                0.00      0.00      0.00
                                0.00      0.00      0.00

     DFT-D   stress (kbar)      0.00      0.00      0.00
                                0.00      0.00      0.00
                                0.00      0.00      0.00

     XDM     stress (kbar)      0.00      0.00      0.00
                                0.00      0.00      0.00
                                0.00      0.00      0.00

     dft-nl  stress (kbar)      0.00      0.00      0.00
                                0.00      0.00      0.00
                                0.00      0.00      0.00

     TS-vdW  stress (kbar)      0.00      0.00      0.00
                                0.00      0.00      0.00
                                0.00      0.00      0.00

     Writing output data file ./outputs/si.slab.save/

     General routines

     Parallel routines

     PAW routines

   This run was terminated on:  15: 2:58  22Oct2024

   JOB DONE.