     Program PWSCF v.6.7MaX starts on 22Oct2024 at 15: 2:58

     Waiting for input...
     Reading input from standard input

     Current dimensions of program PWSCF are:
     Max number of different atomic species (ntypx) = 10
     Max number of k-points (npk) =  40000
     Max angular momentum in pseudopotentials (lmaxx) =  3
     file Si.pbe-n-kjpaw_psl.1.0.0.UPF: wavefunction(s)  3S 3P renormalized

     Subspace diagonalization in iterative solution of the eigenvalue problem:
     a serial algorithm will be used

     Message from routine setup:
     using ibrav=0 with symmetry is DISCOURAGED, use correct ibrav instead

     Title:
     si.slab

     bravais-lattice index     =            0
     lattice parameter (alat)  =       7.3227  a.u.
     unit-cell volume          =    1700.2089 (a.u.)^3
     number of atoms/cell      =            2
     number of atomic types    =            1
     number of electrons       =         8.00
     number of Kohn-Sham states=            8
     kinetic-energy cutoff     =     100.0000  Ry
     charge density cutoff     =     800.0000  Ry
     scf convergence threshold =      1.0E-08
     mixing beta               =       0.3000
     number of iterations used =            8  local-TF  mixing
     Exchange-correlation= SLA  PW   PBX  PBC
                           (   1   4   3   4   0   0   0)

     celldm(1)=   7.322704  celldm(2)=   0.000000  celldm(3)=   0.000000
     celldm(4)=   0.000000  celldm(5)=   0.000000  celldm(6)=   0.000000

     crystal axes: (cart. coord. in units of alat)
               a(1) = (   1.000000   0.000000   0.000000 )
               a(2) = (   0.500000   0.866000   0.000000 )
               a(3) = (   0.000000   0.000000   5.000000 )

     reciprocal axes: (cart. coord. in units 2 pi/alat)
               b(1) = (  1.000000 -0.577367  0.000000 )
               b(2) = (  0.000000  1.154734  0.000000 )
               b(3) = (  0.000000  0.000000  0.200000 )

     PseudoPot. # 1 for Si read from file:
     /home/ayan/pseudo_directory/Si.pbe-n-kjpaw_psl.1.0.0.UPF
     MD5 check sum: c39c59da582df4a0d9f10159256ea34e
     Pseudo is Projector augmented-wave + core cor, Zval =  4.0
     Generated using &quot;atomic&quot; code by A. Dal Corso  v.6.3
     Shape of augmentation charge: PSQ
     Using radial grid of 1141 points,  6 beta functions with:
                l(1) =   0
                l(2) =   0
                l(3) =   1
                l(4) =   1
                l(5) =   2
                l(6) =   2
     Q(r) pseudized with 0 coefficients

     atomic species   valence    mass     pseudopotential
        Si             4.00    28.08500     Si( 1.00)

      2 Sym. Ops. (no inversion) found

                                    s                        frac. trans.

      isym =  1     identity

 cryst.   s( 1) = (     1          0          0      )
                  (     0          1          0      )
                  (     0          0          1      )

 cart.    s( 1) = (  1.0000000  0.0000000  0.0000000 )
                  (  0.0000000  1.0000000  0.0000000 )
                  (  0.0000000  0.0000000  1.0000000 )

      isym =  2     inv. 180 deg rotation - cart. axis [0,0,1]

 cryst.   s( 2) = (     1          0          0      )
                  (     0          1          0      )
                  (     0          0         -1      )

 cart.    s( 2) = (  1.0000000  0.0000000  0.0000000 )
                  (  0.0000000  1.0000000  0.0000000 )
                  (  0.0000000  0.0000000 -1.0000000 )

   Cartesian axes

     site n.     atom                  positions (alat units)
         1           Si  tau(   1) = (   0.0000000   0.0000000   0.0000000  )
         2           Si  tau(   2) = (   0.4999800   0.2886378   0.0000000  )

   Crystallographic axes

     site n.     atom                  positions (cryst. coord.)
         1           Si  tau(   1) = (  0.0000000  0.0000000  0.0000000  )
         2           Si  tau(   2) = (  0.3333300  0.3333000  0.0000000  )

     number of k points=    20  Methfessel-Paxton smearing, width (Ry)=  0.0300
                       cart. coord. in units 2pi/alat
        k(    1) = (   0.0000000   0.0000000   0.0000000), wk =   0.0555556
        k(    2) = (   0.0000000   0.1924557   0.0000000), wk =   0.1111111
        k(    3) = (   0.0000000   0.3849115   0.0000000), wk =   0.1111111
        k(    4) = (   0.0000000  -0.5773672   0.0000000), wk =   0.0555556
        k(    5) = (   0.1666667  -0.0962279   0.0000000), wk =   0.1111111
        k(    6) = (   0.1666667   0.2886836   0.0000000), wk =   0.1111111
        k(    7) = (   0.1666667  -0.6735951   0.0000000), wk =   0.1111111
        k(    8) = (   0.3333333  -0.1924557   0.0000000), wk =   0.1111111
        k(    9) = (   0.3333333   0.0000000   0.0000000), wk =   0.1111111
        k(   10) = (   0.3333333  -0.7698229   0.0000000), wk =   0.1111111
        k(   11) = (   0.3333333  -0.5773672   0.0000000), wk =   0.1111111
        k(   12) = (  -0.5000000   0.2886836   0.0000000), wk =   0.0555556
        k(   13) = (  -0.5000000   0.4811393   0.0000000), wk =   0.1111111
        k(   14) = (  -0.1666667  -0.0962279   0.0000000), wk =   0.1111111
        k(   15) = (  -0.1666667   0.2886836   0.0000000), wk =   0.1111111
        k(   16) = (  -0.1666667  -0.6735951   0.0000000), wk =   0.1111111
        k(   17) = (  -0.3333333  -0.1924557   0.0000000), wk =   0.1111111
        k(   18) = (  -0.3333333  -0.7698229   0.0000000), wk =   0.1111111
        k(   19) = (   0.5000000   0.2886836   0.0000000), wk =   0.0555556
        k(   20) = (   0.5000000   0.4811393   0.0000000), wk =   0.1111111

                       cryst. coord.
        k(    1) = (   0.0000000   0.0000000   0.0000000), wk =   0.0555556
        k(    2) = (   0.0000000   0.1666667   0.0000000), wk =   0.1111111
        k(    3) = (   0.0000000   0.3333333   0.0000000), wk =   0.1111111
        k(    4) = (   0.0000000  -0.5000000   0.0000000), wk =   0.0555556
        k(    5) = (   0.1666667   0.0000000   0.0000000), wk =   0.1111111
        k(    6) = (   0.1666667   0.3333333   0.0000000), wk =   0.1111111
        k(    7) = (   0.1666667  -0.5000000   0.0000000), wk =   0.1111111
        k(    8) = (   0.3333333   0.0000000   0.0000000), wk =   0.1111111
        k(    9) = (   0.3333333   0.1666667   0.0000000), wk =   0.1111111
        k(   10) = (   0.3333333  -0.5000000   0.0000000), wk =   0.1111111
        k(   11) = (   0.3333333  -0.3333333   0.0000000), wk =   0.1111111
        k(   12) = (  -0.5000000  -0.0000000   0.0000000), wk =   0.0555556
        k(   13) = (  -0.5000000   0.1666667   0.0000000), wk =   0.1111111
        k(   14) = (  -0.1666667  -0.1666667   0.0000000), wk =   0.1111111
        k(   15) = (  -0.1666667   0.1666667   0.0000000), wk =   0.1111111
        k(   16) = (  -0.1666667  -0.6666667   0.0000000), wk =   0.1111111
        k(   17) = (  -0.3333333  -0.3333333   0.0000000), wk =   0.1111111
        k(   18) = (  -0.3333333  -0.8333333   0.0000000), wk =   0.1111111
        k(   19) = (   0.5000000   0.5000000   0.0000000), wk =   0.0555556
        k(   20) = (   0.5000000   0.6666667   0.0000000), wk =   0.1111111

     Initial potential from superposition of free atoms

     starting charge    7.99888, renormalised to    8.00000

     negative rho (up, down):  7.032E-05 0.000E+00
     Starting wfcs are    8 randomized atomic wfcs
     Checking if some PAW data can be deallocated...

     Self-consistent Calculation

     iteration #  1     ecut=   100.00 Ry     beta= 0.30
     CG style diagonalization
     ethr =  1.00E-02,  avg # of iterations =  4.1

     Threshold (ethr) on eigenvalues was too large:
     Diagonalizing with lowered threshold

     CG style diagonalization
     ethr =  8.25E-04,  avg # of iterations =  2.1

     negative rho (up, down):  2.701E-08 0.000E+00

     total energy              =     -93.36677025 Ry
     estimated scf accuracy    <       0.06469187 Ry

[...]

     iteration #  6     ecut=   100.00 Ry     beta= 0.30
     CG style diagonalization
     c_bands:  1 eigenvalues not converged
     c_bands:  1 eigenvalues not converged
     c_bands:  1 eigenvalues not converged
     c_bands:  1 eigenvalues not converged
     ethr =  7.92E-06,  avg # of iterations =  4.7

[...]

     iteration #  8     ecut=   100.00 Ry     beta= 0.30
     CG style diagonalization
     c_bands:  1 eigenvalues not converged
     ethr =  2.01E-06,  avg # of iterations =  3.6

[...]

     total energy              =     -93.35458014 Ry
     estimated scf accuracy    <       0.00000002 Ry

     iteration # 16     ecut=   100.00 Ry     beta= 0.30
     CG style diagonalization
     ethr =  2.48E-10,  avg # of iterations =  3.2

[...]

     End of self-consistent calculation

          k = 0.0000 0.0000 0.0000 ( 28707 PWs)   bands (ev):

   -14.2586  -5.9356  -4.6001  -4.5990  -1.2898  -0.2253  -0.2244   0.2908

     occupation numbers
     1.0000   1.0000   1.0000   1.0000  -0.0000  -0.0000  -0.0000  -0.0000

[...]

          k =-0.5000 0.2887 0.0000 ( 28744 PWs)   bands (ev):

[...]

          k =-0.3333-0.7698 0.0000 ( 28671 PWs)   bands (ev):

[...]

          k = 0.5000 0.4811 0.0000 ( 28671 PWs)   bands (ev):

   -12.1810  -9.9381  -6.8749  -3.9147  -1.7123  -0.3466   2.2769   2.6861

     occupation numbers
     1.0000   1.0000   1.0000   1.0003  -0.0007  -0.0000  -0.0000  -0.0000

     the Fermi energy is    -2.7769 ev

!    total energy              =     -93.35458016 Ry

     total all-electron energy =     -1160.046310 Ry
     estimated scf accuracy    <          5.1E-09 Ry
     smearing contrib. (-TS)   =      -0.00034796 Ry
     internal energy E=F+TS    =     -93.35423221 Ry

     The total energy is F=E-TS. E is the sum of the following terms:
     one-electron contribution =     -77.70228671 Ry
     hartree contribution      =      40.03193873 Ry
     xc contribution           =     -12.18280589 Ry
     ewald contribution        =      27.69085919 Ry
     one-center paw contrib.   =     -71.19193753 Ry
      -> PAW hartree energy AE =       5.95690990 Ry
      -> PAW hartree energy PS =      -5.93355603 Ry
      -> PAW xc energy AE      =     -81.76012573 Ry
      -> PAW xc energy PS      =      10.54483433 Ry
      -> total E_H with PAW    =      40.05529261 Ry
      -> total E_XC with PAW   =     -83.39809729 Ry

     convergence has been achieved in  16 iterations

     negative rho (up, down):  6.148E-06 0.000E+00

     Forces acting on atoms (cartesian axes, Ry/au):

     atom    1 type  1   force =    -0.00005295   -0.00006312    0.00000000
     atom    2 type  1   force =     0.00005295    0.00006312    0.00000000
     The non-local contrib.  to forces
     atom    1 type  1   force =    -0.00004657   -0.00003490    0.00000000
     atom    2 type  1   force =     0.00004967    0.00003470    0.00000000
     The ionic contribution  to forces
     atom    1 type  1   force =    -0.00013819   -0.00009804   -0.00000000
     atom    2 type  1   force =     0.00013819    0.00009804   -0.00000000
     The local contribution  to forces
     atom    1 type  1   force =     0.00012789    0.00006610    0.00000000
     atom    2 type  1   force =    -0.00012954   -0.00006640    0.00000000
     The core correction contribution to forces
     atom    1 type  1   force =     0.00000554    0.00000422    0.00000000
     atom    2 type  1   force =    -0.00000587   -0.00000422    0.00000000
     The Hubbard contrib.    to forces
     atom    1 type  1   force =     0.00000000    0.00000000    0.00000000
     atom    2 type  1   force =     0.00000000    0.00000000    0.00000000
     The SCF correction term to forces
     atom    1 type  1   force =    -0.00000102   -0.00000073   -0.00000000
     atom    2 type  1   force =     0.00000109    0.00000077   -0.00000000

     Total force =     0.000117     Total SCF correction =     0.000002

     Computing stress (Cartesian axis) and pressure

     negative rho (up, down):  6.148E-06 0.000E+00
          total   stress  (Ry/bohr**3)                   (kbar)     P=        3.01
   0.00003077   0.00000004   0.00000000            4.53        0.01        0.00
   0.00000004   0.00003073   0.00000000            0.01        4.52        0.00
   0.00000000   0.00000000  -0.00000006            0.00        0.00       -0.01

     kinetic stress (kbar)    315.52     -0.01      0.00
                               -0.01    315.54      0.00
                                0.00      0.00    396.28

     local   stress (kbar)  -7327.58     -0.04      0.00
                               -0.04  -7327.47     -0.00
                                0.00     -0.00   7474.09

     nonloc. stress (kbar)    271.00      0.01      0.00
                                0.01    270.98      0.00
                                0.00      0.00    229.41

     hartree stress (kbar)   3417.49      0.01     -0.00
                                0.01   3417.48      0.00
                               -0.00      0.00  -3371.33

     exc-cor stress (kbar)    473.03      0.00     -0.00
                                0.00    473.03      0.00
                               -0.00      0.00    467.53

     corecor stress (kbar)   -628.96     -0.00      0.00
                               -0.00   -628.96      0.00
                                0.00     -0.00   -623.91

     ewald   stress (kbar)   3484.03      0.04     -0.00
                                0.04   3483.92     -0.00
                               -0.00     -0.00  -4572.09

     hubbard stress (kbar)      0.00      0.00      0.00
                                0.00      0.00      0.00
                                0.00      0.00      0.00

     DFT-D   stress (kbar)      0.00      0.00      0.00
                                0.00      0.00      0.00
                                0.00      0.00      0.00

     XDM     stress (kbar)      0.00      0.00      0.00
                                0.00      0.00      0.00
                                0.00      0.00      0.00

     dft-nl  stress (kbar)      0.00      0.00      0.00
                                0.00      0.00      0.00
                                0.00      0.00      0.00

     TS-vdW  stress (kbar)      0.00      0.00      0.00
                                0.00      0.00      0.00
                                0.00      0.00      0.00

     Writing output data file ./outputs/si.slab.save/

     General routines

     Parallel routines

     PAW routines

   This run was terminated on:  15: 9:48  22Oct2024

   JOB DONE.