     Program PWSCF v.6.7MaX starts on 22Oct2024 at 14:47:27

     Waiting for input...
     Reading input from standard input

     Current dimensions of program PWSCF are:
     Max number of different atomic species (ntypx) = 10
     Max number of k-points (npk) =  40000
     Max angular momentum in pseudopotentials (lmaxx) =  3
     file Si.pbe-n-kjpaw_psl.1.0.0.UPF: wavefunction(s)  3S 3P renormalized

     Subspace diagonalization in iterative solution of the eigenvalue problem:
     a serial algorithm will be used

     Message from routine setup:
     using ibrav=0 with symmetry is DISCOURAGED, use correct ibrav instead

     Title:
     si.slab

     bravais-lattice index     =            0
     lattice parameter (alat)  =       6.6141  a.u.
     unit-cell volume          =    1252.8276 (a.u.)^3
     number of atoms/cell      =            2
     number of atomic types    =            1
     number of electrons       =         8.00
     number of Kohn-Sham states=            8
     kinetic-energy cutoff     =     100.0000  Ry
     charge density cutoff     =     800.0000  Ry
     scf convergence threshold =      1.0E-08
     mixing beta               =       0.3000
     number of iterations used =            8  local-TF  mixing
     Exchange-correlation= SLA  PW   PBX  PBC
                           (   1   4   3   4   0   0   0)

     celldm(1)=   6.614055  celldm(2)=   0.000000  celldm(3)=   0.000000
     celldm(4)=   0.000000  celldm(5)=   0.000000  celldm(6)=   0.000000

     crystal axes: (cart. coord. in units of alat)
               a(1) = (   1.000000   0.000000   0.000000 )
               a(2) = (   0.500000   0.866000   0.000000 )
               a(3) = (   0.000000   0.000000   5.000000 )

     reciprocal axes: (cart. coord. in units 2 pi/alat)
               b(1) = (  1.000000 -0.577367  0.000000 )
               b(2) = (  0.000000  1.154734  0.000000 )
               b(3) = (  0.000000  0.000000  0.200000 )

     PseudoPot. # 1 for Si read from file:
     /home/ayan/pseudo_directory/Si.pbe-n-kjpaw_psl.1.0.0.UPF
     MD5 check sum: c39c59da582df4a0d9f10159256ea34e
     Pseudo is Projector augmented-wave + core cor, Zval =  4.0
     Generated using &quot;atomic&quot; code by A. Dal Corso  v.6.3
     Shape of augmentation charge: PSQ
     Using radial grid of 1141 points,  6 beta functions with:
                l(1) =   0
                l(2) =   0
                l(3) =   1
                l(4) =   1
                l(5) =   2
                l(6) =   2
     Q(r) pseudized with 0 coefficients

     atomic species   valence    mass     pseudopotential
        Si             4.00    28.08500     Si( 1.00)

      2 Sym. Ops. (no inversion) found

                                    s                        frac. trans.

      isym =  1     identity

 cryst.   s( 1) = (     1          0          0      )
                  (     0          1          0      )
                  (     0          0          1      )

 cart.    s( 1) = (  1.0000000  0.0000000  0.0000000 )
                  (  0.0000000  1.0000000  0.0000000 )
                  (  0.0000000  0.0000000  1.0000000 )

      isym =  2     inv. 180 deg rotation - cart. axis [0,0,1]

 cryst.   s( 2) = (     1          0          0      )
                  (     0          1          0      )
                  (     0          0         -1      )

 cart.    s( 2) = (  1.0000000  0.0000000  0.0000000 )
                  (  0.0000000  1.0000000  0.0000000 )
                  (  0.0000000  0.0000000 -1.0000000 )

   Cartesian axes

     site n.     atom                  positions (alat units)
         1           Si  tau(   1) = (   0.0000000   0.0000000   0.0000000  )
         2           Si  tau(   2) = (   0.4999800   0.2886378   0.0000000  )

   Crystallographic axes

     site n.     atom                  positions (cryst. coord.)
         1           Si  tau(   1) = (  0.0000000  0.0000000  0.0000000  )
         2           Si  tau(   2) = (  0.3333300  0.3333000  0.0000000  )

     number of k points=    20  Methfessel-Paxton smearing, width (Ry)=  0.0300
                       cart. coord. in units 2pi/alat
        k(    1) = (   0.0000000   0.0000000   0.0000000), wk =   0.0555556
        k(    2) = (   0.0000000   0.1924557   0.0000000), wk =   0.1111111
        k(    3) = (   0.0000000   0.3849115   0.0000000), wk =   0.1111111
        k(    4) = (   0.0000000  -0.5773672   0.0000000), wk =   0.0555556
        k(    5) = (   0.1666667  -0.0962279   0.0000000), wk =   0.1111111
        k(    6) = (   0.1666667   0.2886836   0.0000000), wk =   0.1111111
        k(    7) = (   0.1666667  -0.6735951   0.0000000), wk =   0.1111111
        k(    8) = (   0.3333333  -0.1924557   0.0000000), wk =   0.1111111
        k(    9) = (   0.3333333   0.0000000   0.0000000), wk =   0.1111111
        k(   10) = (   0.3333333  -0.7698229   0.0000000), wk =   0.1111111
        k(   11) = (   0.3333333  -0.5773672   0.0000000), wk =   0.1111111
        k(   12) = (  -0.5000000   0.2886836   0.0000000), wk =   0.0555556
        k(   13) = (  -0.5000000   0.4811393   0.0000000), wk =   0.1111111
        k(   14) = (  -0.1666667  -0.0962279   0.0000000), wk =   0.1111111
        k(   15) = (  -0.1666667   0.2886836   0.0000000), wk =   0.1111111
        k(   16) = (  -0.1666667  -0.6735951   0.0000000), wk =   0.1111111
        k(   17) = (  -0.3333333  -0.1924557   0.0000000), wk =   0.1111111
        k(   18) = (  -0.3333333  -0.7698229   0.0000000), wk =   0.1111111
        k(   19) = (   0.5000000   0.2886836   0.0000000), wk =   0.0555556
        k(   20) = (   0.5000000   0.4811393   0.0000000), wk =   0.1111111

                       cryst. coord.
        k(    1) = (   0.0000000   0.0000000   0.0000000), wk =   0.0555556
        k(    2) = (   0.0000000   0.1666667   0.0000000), wk =   0.1111111
        k(    3) = (   0.0000000   0.3333333   0.0000000), wk =   0.1111111
        k(    4) = (   0.0000000  -0.5000000   0.0000000), wk =   0.0555556
        k(    5) = (   0.1666667   0.0000000   0.0000000), wk =   0.1111111
        k(    6) = (   0.1666667   0.3333333   0.0000000), wk =   0.1111111
        k(    7) = (   0.1666667  -0.5000000   0.0000000), wk =   0.1111111
        k(    8) = (   0.3333333   0.0000000   0.0000000), wk =   0.1111111
        k(    9) = (   0.3333333   0.1666667   0.0000000), wk =   0.1111111
        k(   10) = (   0.3333333  -0.5000000   0.0000000), wk =   0.1111111
        k(   11) = (   0.3333333  -0.3333333   0.0000000), wk =   0.1111111
        k(   12) = (  -0.5000000  -0.0000000   0.0000000), wk =   0.0555556
        k(   13) = (  -0.5000000   0.1666667   0.0000000), wk =   0.1111111
        k(   14) = (  -0.1666667  -0.1666667   0.0000000), wk =   0.1111111
        k(   15) = (  -0.1666667   0.1666667   0.0000000), wk =   0.1111111
        k(   16) = (  -0.1666667  -0.6666667   0.0000000), wk =   0.1111111
        k(   17) = (  -0.3333333  -0.3333333   0.0000000), wk =   0.1111111
        k(   18) = (  -0.3333333  -0.8333333   0.0000000), wk =   0.1111111
        k(   19) = (   0.5000000   0.5000000   0.0000000), wk =   0.0555556
        k(   20) = (   0.5000000   0.6666667   0.0000000), wk =   0.1111111

     Initial potential from superposition of free atoms

     starting charge    7.99888, renormalised to    8.00000

     negative rho (up, down):  5.561E-05 0.000E+00
     Starting wfcs are    8 randomized atomic wfcs
     Checking if some PAW data can be deallocated...

     Self-consistent Calculation

     iteration #  1     ecut=   100.00 Ry     beta= 0.30
     CG style diagonalization
     ethr =  1.00E-02,  avg # of iterations =  4.5

     total energy              =     -93.27532296 Ry
     estimated scf accuracy    <       0.13603987 Ry

[...]

     iteration #  4     ecut=   100.00 Ry     beta= 0.30
     CG style diagonalization
     c_bands:  1 eigenvalues not converged
     ethr =  1.09E-04,  avg # of iterations =  4.3

[...]

     negative rho (up, down):  2.709E-03 0.000E+00

[...]

     iteration # 13     ecut=   100.00 Ry     beta= 0.30
     CG style diagonalization
     c_bands:  1 eigenvalues not converged
     ethr =  3.31E-08,  avg # of iterations =  4.0

[...]

     total energy              =     -93.24686520 Ry
     estimated scf accuracy    <       0.00000002 Ry

     iteration # 16     ecut=   100.00 Ry     beta= 0.30
     CG style diagonalization
     ethr =  2.26E-10,  avg # of iterations =  3.5

[...]

     End of self-consistent calculation

          k = 0.0000 0.0000 0.0000 ( 21237 PWs)   bands (ev):

   -14.8665  -6.1609  -3.4727  -3.4715   0.5645   0.9295   0.9301   2.0678

     occupation numbers
     1.0000   1.0000   1.0000   1.0000  -0.0000  -0.0000  -0.0000  -0.0000

[...]

          k =-0.5000 0.2887 0.0000 ( 21120 PWs)   bands (ev):

[...]

          k =-0.3333-0.7698 0.0000 ( 21111 PWs)   bands (ev):

[...]

          k = 0.5000 0.4811 0.0000 ( 21111 PWs)   bands (ev):

   -12.1780  -9.5455  -6.6215  -3.5644  -0.8712   1.2117   3.0607   3.5637

     occupation numbers
     1.0000   1.0000   1.0000   1.0000  -0.0001  -0.0000  -0.0000  -0.0000

     the Fermi energy is    -2.1093 ev

!    total energy              =     -93.24686518 Ry

     total all-electron energy =     -1159.938595 Ry
     estimated scf accuracy    <          7.4E-10 Ry
     smearing contrib. (-TS)   =      -0.00062923 Ry
     internal energy E=F+TS    =     -93.24623595 Ry

     The total energy is F=E-TS. E is the sum of the following terms:
     one-electron contribution =     -83.23296836 Ry
     hartree contribution      =      43.13209218 Ry
     xc contribution           =     -12.53949531 Ry
     ewald contribution        =      30.65773696 Ry
     one-center paw contrib.   =     -71.26360141 Ry
      -> PAW hartree energy AE =       8.34267107 Ry
      -> PAW hartree energy PS =      -8.31379651 Ry
      -> PAW xc energy AE      =     -82.67504437 Ry
      -> PAW xc energy PS      =      11.38256840 Ry
      -> total E_H with PAW    =      43.16096673 Ry
      -> total E_XC with PAW   =     -83.83197128 Ry

     convergence has been achieved in  16 iterations

     negative rho (up, down):  5.671E-06 0.000E+00

     Forces acting on atoms (cartesian axes, Ry/au):

     atom    1 type  1   force =    -0.00010279   -0.00010712    0.00000000
     atom    2 type  1   force =     0.00010279    0.00010712    0.00000000
     The non-local contrib.  to forces
     atom    1 type  1   force =    -0.00008197   -0.00006453    0.00000000
     atom    2 type  1   force =     0.00007980    0.00006437    0.00000000
     The ionic contribution  to forces
     atom    1 type  1   force =    -0.00016939   -0.00012017   -0.00000000
     atom    2 type  1   force =     0.00016939    0.00012017   -0.00000000
     The local contribution  to forces
     atom    1 type  1   force =     0.00013750    0.00007026    0.00000000
     atom    2 type  1   force =    -0.00013754   -0.00007020    0.00000000
     The core correction contribution to forces
     atom    1 type  1   force =     0.00000930    0.00000736    0.00000000
     atom    2 type  1   force =    -0.00000910   -0.00000735    0.00000000
     The Hubbard contrib.    to forces
     atom    1 type  1   force =     0.00000000    0.00000000    0.00000000
     atom    2 type  1   force =     0.00000000    0.00000000    0.00000000
     The SCF correction term to forces
     atom    1 type  1   force =     0.00000081   -0.00000009    0.00000000
     atom    2 type  1   force =    -0.00000072    0.00000007    0.00000000

     Total force =     0.000210     Total SCF correction =     0.000001

     Computing stress (Cartesian axis) and pressure

     negative rho (up, down):  5.671E-06 0.000E+00
          total   stress  (Ry/bohr**3)                   (kbar)     P=       86.13
   0.00087841   0.00000015   0.00000000          129.22        0.02        0.00
   0.00000015   0.00087813   0.00000000            0.02      129.18        0.00
   0.00000000   0.00000000  -0.00000000            0.00        0.00       -0.00

     kinetic stress (kbar)    497.48     -0.01      0.00
                               -0.01    497.51      0.00
                                0.00      0.00    573.11

     local   stress (kbar) -10811.78     -0.05      0.00
                               -0.05 -10811.64      0.00
                                0.00      0.00  11163.19

     nonloc. stress (kbar)    419.49      0.01      0.00
                                0.01    419.46      0.00
                                0.00      0.00    326.25

     hartree stress (kbar)   5016.56      0.01     -0.00
                                0.01   5016.55     -0.00
                               -0.00     -0.00  -4968.61

     exc-cor stress (kbar)    633.91      0.00     -0.00
                                0.00    633.91      0.00
                               -0.00      0.00    624.77

     corecor stress (kbar)   -861.20     -0.00      0.00
                               -0.00   -861.20      0.00
                                0.00      0.00   -849.14

     ewald   stress (kbar)   5234.76      0.07     -0.00
                                0.07   5234.59     -0.00
                               -0.00     -0.00  -6869.57

     hubbard stress (kbar)      0.00      0.00      0.00
                                0.00      0.00      0.00
                                0.00      0.00      0.00

     DFT-D   stress (kbar)      0.00      0.00      0.00
                                0.00      0.00      0.00
                                0.00      0.00      0.00

     XDM     stress (kbar)      0.00      0.00      0.00
                                0.00      0.00      0.00
                                0.00      0.00      0.00

     dft-nl  stress (kbar)      0.00      0.00      0.00
                                0.00      0.00      0.00
                                0.00      0.00      0.00

     TS-vdW  stress (kbar)      0.00      0.00      0.00
                                0.00      0.00      0.00
                                0.00      0.00      0.00

     Writing output data file ./outputs/si.slab.save/

     General routines

     Parallel routines

     PAW routines

   This run was terminated on:  14:52: 2  22Oct2024

   JOB DONE.