     Program PWSCF v.6.7MaX starts on 22Oct2024 at 15: 9:48

     Waiting for input...
     Reading input from standard input

     Current dimensions of program PWSCF are:
     Max number of different atomic species (ntypx) = 10
     Max number of k-points (npk) =  40000
     Max angular momentum in pseudopotentials (lmaxx) =  3
     file Si.pbe-n-kjpaw_psl.1.0.0.UPF: wavefunction(s)  3S 3P renormalized

     Subspace diagonalization in iterative solution of the eigenvalue problem:
     a serial algorithm will be used

     Message from routine setup:
     using ibrav=0 with symmetry is DISCOURAGED, use correct ibrav instead

     Title:
     si.slab

     bravais-lattice index     =            0
     lattice parameter (alat)  =       7.5589  a.u.
     unit-cell volume          =    1870.1100 (a.u.)^3
     number of atoms/cell      =            2
     number of atomic types    =            1
     number of electrons       =         8.00
     number of Kohn-Sham states=            8
     kinetic-energy cutoff     =     100.0000  Ry
     charge density cutoff     =     800.0000  Ry
     scf convergence threshold =      1.0E-08
     mixing beta               =       0.3000
     number of iterations used =            8  local-TF  mixing
     Exchange-correlation= SLA  PW   PBX  PBC
                           (   1   4   3   4   0   0   0)

     celldm(1)=   7.558920  celldm(2)=   0.000000  celldm(3)=   0.000000
     celldm(4)=   0.000000  celldm(5)=   0.000000  celldm(6)=   0.000000

     crystal axes: (cart. coord. in units of alat)
               a(1) = (   1.000000   0.000000   0.000000 )
               a(2) = (   0.500000   0.866000   0.000000 )
               a(3) = (   0.000000   0.000000   5.000000 )

     reciprocal axes: (cart. coord. in units 2 pi/alat)
               b(1) = (  1.000000 -0.577367  0.000000 )
               b(2) = (  0.000000  1.154734  0.000000 )
               b(3) = (  0.000000  0.000000  0.200000 )

     PseudoPot. # 1 for Si read from file:
     /home/ayan/pseudo_directory/Si.pbe-n-kjpaw_psl.1.0.0.UPF
     MD5 check sum: c39c59da582df4a0d9f10159256ea34e
     Pseudo is Projector augmented-wave + core cor, Zval =  4.0
     Generated using &quot;atomic&quot; code by A. Dal Corso  v.6.3
     Shape of augmentation charge: PSQ
     Using radial grid of 1141 points,  6 beta functions with:
                l(1) =   0
                l(2) =   0
                l(3) =   1
                l(4) =   1
                l(5) =   2
                l(6) =   2
     Q(r) pseudized with 0 coefficients

     atomic species   valence    mass     pseudopotential
        Si             4.00    28.08500     Si( 1.00)

      2 Sym. Ops. (no inversion) found

                                    s                        frac. trans.

      isym =  1     identity

 cryst.   s( 1) = (     1          0          0      )
                  (     0          1          0      )
                  (     0          0          1      )

 cart.    s( 1) = (  1.0000000  0.0000000  0.0000000 )
                  (  0.0000000  1.0000000  0.0000000 )
                  (  0.0000000  0.0000000  1.0000000 )

      isym =  2     inv. 180 deg rotation - cart. axis [0,0,1]

 cryst.   s( 2) = (     1          0          0      )
                  (     0          1          0      )
                  (     0          0         -1      )

 cart.    s( 2) = (  1.0000000  0.0000000  0.0000000 )
                  (  0.0000000  1.0000000  0.0000000 )
                  (  0.0000000  0.0000000 -1.0000000 )

   Cartesian axes

     site n.     atom                  positions (alat units)
         1           Si  tau(   1) = (   0.0000000   0.0000000   0.0000000  )
         2           Si  tau(   2) = (   0.4999800   0.2886378   0.0000000  )

   Crystallographic axes

     site n.     atom                  positions (cryst. coord.)
         1           Si  tau(   1) = (  0.0000000  0.0000000  0.0000000  )
         2           Si  tau(   2) = (  0.3333300  0.3333000  0.0000000  )

     number of k points=    20  Methfessel-Paxton smearing, width (Ry)=  0.0300
                       cart. coord. in units 2pi/alat
        k(    1) = (   0.0000000   0.0000000   0.0000000), wk =   0.0555556
        k(    2) = (   0.0000000   0.1924557   0.0000000), wk =   0.1111111
        k(    3) = (   0.0000000   0.3849115   0.0000000), wk =   0.1111111
        k(    4) = (   0.0000000  -0.5773672   0.0000000), wk =   0.0555556
        k(    5) = (   0.1666667  -0.0962279   0.0000000), wk =   0.1111111
        k(    6) = (   0.1666667   0.2886836   0.0000000), wk =   0.1111111
        k(    7) = (   0.1666667  -0.6735951   0.0000000), wk =   0.1111111
        k(    8) = (   0.3333333  -0.1924557   0.0000000), wk =   0.1111111
        k(    9) = (   0.3333333   0.0000000   0.0000000), wk =   0.1111111
        k(   10) = (   0.3333333  -0.7698229   0.0000000), wk =   0.1111111
        k(   11) = (   0.3333333  -0.5773672   0.0000000), wk =   0.1111111
        k(   12) = (  -0.5000000   0.2886836   0.0000000), wk =   0.0555556
        k(   13) = (  -0.5000000   0.4811393   0.0000000), wk =   0.1111111
        k(   14) = (  -0.1666667  -0.0962279   0.0000000), wk =   0.1111111
        k(   15) = (  -0.1666667   0.2886836   0.0000000), wk =   0.1111111
        k(   16) = (  -0.1666667  -0.6735951   0.0000000), wk =   0.1111111
        k(   17) = (  -0.3333333  -0.1924557   0.0000000), wk =   0.1111111
        k(   18) = (  -0.3333333  -0.7698229   0.0000000), wk =   0.1111111
        k(   19) = (   0.5000000   0.2886836   0.0000000), wk =   0.0555556
        k(   20) = (   0.5000000   0.4811393   0.0000000), wk =   0.1111111

                       cryst. coord.
        k(    1) = (   0.0000000   0.0000000   0.0000000), wk =   0.0555556
        k(    2) = (   0.0000000   0.1666667   0.0000000), wk =   0.1111111
        k(    3) = (   0.0000000   0.3333333   0.0000000), wk =   0.1111111
        k(    4) = (   0.0000000  -0.5000000   0.0000000), wk =   0.0555556
        k(    5) = (   0.1666667   0.0000000   0.0000000), wk =   0.1111111
        k(    6) = (   0.1666667   0.3333333   0.0000000), wk =   0.1111111
        k(    7) = (   0.1666667  -0.5000000   0.0000000), wk =   0.1111111
        k(    8) = (   0.3333333   0.0000000   0.0000000), wk =   0.1111111
        k(    9) = (   0.3333333   0.1666667   0.0000000), wk =   0.1111111
        k(   10) = (   0.3333333  -0.5000000   0.0000000), wk =   0.1111111
        k(   11) = (   0.3333333  -0.3333333   0.0000000), wk =   0.1111111
        k(   12) = (  -0.5000000  -0.0000000   0.0000000), wk =   0.0555556
        k(   13) = (  -0.5000000   0.1666667   0.0000000), wk =   0.1111111
        k(   14) = (  -0.1666667  -0.1666667   0.0000000), wk =   0.1111111
        k(   15) = (  -0.1666667   0.1666667   0.0000000), wk =   0.1111111
        k(   16) = (  -0.1666667  -0.6666667   0.0000000), wk =   0.1111111
        k(   17) = (  -0.3333333  -0.3333333   0.0000000), wk =   0.1111111
        k(   18) = (  -0.3333333  -0.8333333   0.0000000), wk =   0.1111111
        k(   19) = (   0.5000000   0.5000000   0.0000000), wk =   0.0555556
        k(   20) = (   0.5000000   0.6666667   0.0000000), wk =   0.1111111

     Initial potential from superposition of free atoms

     starting charge    7.99888, renormalised to    8.00000

     negative rho (up, down):  7.577E-05 0.000E+00
     Starting wfcs are    8 randomized atomic wfcs
     Checking if some PAW data can be deallocated...

     Self-consistent Calculation

     iteration #  1     ecut=   100.00 Ry     beta= 0.30
     CG style diagonalization
     ethr =  1.00E-02,  avg # of iterations =  3.9

     Threshold (ethr) on eigenvalues was too large:
     Diagonalizing with lowered threshold

     CG style diagonalization
     ethr =  6.47E-04,  avg # of iterations =  2.3

     negative rho (up, down):  5.616E-08 0.000E+00

     total energy              =     -93.35893212 Ry
     estimated scf accuracy    <       0.05088652 Ry

[...]

     iteration #  4     ecut=   100.00 Ry     beta= 0.30
     CG style diagonalization
     c_bands:  1 eigenvalues not converged
     c_bands:  1 eigenvalues not converged
     ethr =  3.11E-05,  avg # of iterations =  4.4

[...]

     iteration #  8     ecut=   100.00 Ry     beta= 0.30
     CG style diagonalization
     c_bands:  1 eigenvalues not converged
     ethr =  1.30E-06,  avg # of iterations =  3.7

[...]

     total energy              =     -93.35070993 Ry
     estimated scf accuracy    <       0.00000004 Ry

     iteration # 15     ecut=   100.00 Ry     beta= 0.30
     CG style diagonalization
     ethr =  5.43E-10,  avg # of iterations =  3.1

[...]

     End of self-consistent calculation

          k = 0.0000 0.0000 0.0000 ( 31405 PWs)   bands (ev):

   -14.0713  -5.8660  -4.8511  -4.8500  -2.3920  -0.5402  -0.5393   0.2191

     occupation numbers
     1.0000   1.0000   1.0000   1.0000  -0.0337  -0.0000  -0.0000  -0.0000

[...]

          k =-0.5000 0.2887 0.0000 ( 31628 PWs)   bands (ev):

[...]

          k =-0.3333-0.7698 0.0000 ( 31600 PWs)   bands (ev):

[...]

          k = 0.5000 0.4811 0.0000 ( 31600 PWs)   bands (ev):

   -12.1575 -10.0330  -6.9002  -4.0046  -1.9500  -0.8085   2.0734   2.2879

     occupation numbers
     1.0000   1.0000   1.0000   1.0007  -0.0016  -0.0000  -0.0000  -0.0000

     the Fermi energy is    -2.9385 ev

!    total energy              =     -93.35070996 Ry

     total all-electron energy =     -1160.042440 Ry
     estimated scf accuracy    <          1.3E-09 Ry
     smearing contrib. (-TS)   =       0.00016257 Ry
     internal energy E=F+TS    =     -93.35087253 Ry

     The total energy is F=E-TS. E is the sum of the following terms:
     one-electron contribution =     -76.02283795 Ry
     hartree contribution      =      39.10802550 Ry
     xc contribution           =     -12.08471427 Ry
     ewald contribution        =      26.82551984 Ry
     one-center paw contrib.   =     -71.17686566 Ry
      -> PAW hartree energy AE =       5.46839292 Ry
      -> PAW hartree energy PS =      -5.44611185 Ry
      -> PAW xc energy AE      =     -81.55830542 Ry
      -> PAW xc energy PS      =      10.35915869 Ry
      -> total E_H with PAW    =      39.13030657 Ry
      -> total E_XC with PAW   =     -83.28386100 Ry

     convergence has been achieved in  15 iterations

     negative rho (up, down):  6.398E-06 0.000E+00

     Forces acting on atoms (cartesian axes, Ry/au):

     atom    1 type  1   force =    -0.00004211   -0.00005406    0.00000000
     atom    2 type  1   force =     0.00004211    0.00005406    0.00000000
     The non-local contrib.  to forces
     atom    1 type  1   force =    -0.00004168   -0.00002860    0.00000000
     atom    2 type  1   force =     0.00004023    0.00002965    0.00000000
     The ionic contribution  to forces
     atom    1 type  1   force =    -0.00012969   -0.00009201   -0.00000000
     atom    2 type  1   force =     0.00012969    0.00009201   -0.00000000
     The local contribution  to forces
     atom    1 type  1   force =     0.00012573    0.00006424    0.00000000
     atom    2 type  1   force =    -0.00012531   -0.00006391    0.00000000
     The core correction contribution to forces
     atom    1 type  1   force =     0.00000483    0.00000342    0.00000000
     atom    2 type  1   force =    -0.00000487   -0.00000348    0.00000000
     The Hubbard contrib.    to forces
     atom    1 type  1   force =     0.00000000    0.00000000    0.00000000
     atom    2 type  1   force =     0.00000000    0.00000000    0.00000000
     The SCF correction term to forces
     atom    1 type  1   force =    -0.00000226   -0.00000059    0.00000000
     atom    2 type  1   force =     0.00000142    0.00000031    0.00000000

     Total force =     0.000097     Total SCF correction =     0.000003

     Computing stress (Cartesian axis) and pressure

     negative rho (up, down):  6.398E-06 0.000E+00
          total   stress  (Ry/bohr**3)                   (kbar)     P=       -8.77
  -0.00008944   0.00000002   0.00000000          -13.16        0.00        0.00
   0.00000002  -0.00008944   0.00000000            0.00      -13.16        0.00
   0.00000000   0.00000000  -0.00000002            0.00        0.00       -0.00

     kinetic stress (kbar)    274.93     -0.01      0.00
                               -0.01    274.95      0.00
                                0.00      0.00    354.16

     local   stress (kbar)  -6487.73     -0.04      0.00
                               -0.04  -6487.63     -0.00
                                0.00     -0.00   6590.45

     nonloc. stress (kbar)    239.18      0.00      0.00
                                0.00    239.17      0.00
                                0.00      0.00    207.86

     hartree stress (kbar)   3030.96      0.01     -0.00
                                0.01   3030.95      0.00
                               -0.00      0.00  -2985.63

     exc-cor stress (kbar)    431.68      0.00      0.00
                                0.00    431.68     -0.00
                                0.00     -0.00    427.04

     corecor stress (kbar)   -570.70     -0.00      0.00
                               -0.00   -570.70     -0.00
                                0.00     -0.00   -567.07

     ewald   stress (kbar)   3068.52      0.04     -0.00
                                0.04   3068.42     -0.00
                               -0.00     -0.00  -4026.81

     hubbard stress (kbar)      0.00      0.00      0.00
                                0.00      0.00      0.00
                                0.00      0.00      0.00

     DFT-D   stress (kbar)      0.00      0.00      0.00
                                0.00      0.00      0.00
                                0.00      0.00      0.00

     XDM     stress (kbar)      0.00      0.00      0.00
                                0.00      0.00      0.00
                                0.00      0.00      0.00

     dft-nl  stress (kbar)      0.00      0.00      0.00
                                0.00      0.00      0.00
                                0.00      0.00      0.00

     TS-vdW  stress (kbar)      0.00      0.00      0.00
                                0.00      0.00      0.00
                                0.00      0.00      0.00

     Writing output data file ./outputs/si.slab.save/

     General routines

     Parallel routines

     PAW routines

   This run was terminated on:  15:16: 2  22Oct2024

   JOB DONE.